% seed = 0

mint = 33;
% maxt = 161;

nActs = 62;
dur = [0,2,2,2,2,3,5,4,1,1,3,2,2,5,5,3,4,5,2,2,4,1,3,3,1,4,5,3,1,1,2,4,4,1,2,3,4,5,3,1,7,2,2,2,1,2,1,2,3,2,5,4,2,4,1,3,1,1,1,3,2,0];

nSkills = 9;
sreq = [| 0,0,0,0,0,0,0,0,0,
	| 0,0,0,0,0,0,1,1,0,
	| 0,1,1,0,0,1,0,0,0,
	| 0,0,0,1,0,0,0,1,0,
	| 1,0,0,0,0,0,1,0,0,
	| 0,1,1,0,0,1,0,0,0,
	| 0,0,0,0,0,1,0,1,0,
	| 0,0,0,1,0,0,1,1,0,
	| 0,0,0,0,0,1,2,0,0,
	| 0,0,0,0,0,0,2,0,0,
	| 0,0,1,0,1,0,0,0,0,
	| 0,1,0,0,0,0,0,2,0,
	| 0,0,0,0,0,1,0,1,0,
	| 0,0,0,0,0,2,0,0,0,
	| 0,0,0,1,0,0,1,0,0,
	| 0,0,0,0,0,2,0,1,0,
	| 0,0,0,0,1,0,0,1,1,
	| 0,0,0,0,0,0,1,0,0,
	| 0,0,1,0,0,0,0,0,0,
	| 0,0,0,0,0,3,0,0,0,
	| 0,0,0,0,1,0,0,0,0,
	| 0,0,0,1,0,1,0,0,0,
	| 0,0,0,0,0,1,0,0,0,
	| 0,0,0,0,1,0,0,0,0,
	| 0,0,0,1,0,0,0,0,0,
	| 0,0,1,1,1,0,0,0,0,
	| 0,0,0,0,0,0,0,1,0,
	| 0,0,0,0,0,1,0,1,0,
	| 1,0,0,0,1,0,1,0,0,
	| 0,0,0,0,0,0,1,0,0,
	| 0,0,0,0,1,1,1,0,0,
	| 0,0,0,1,0,0,1,0,0,
	| 0,0,0,0,0,1,1,1,0,
	| 0,0,0,0,0,0,2,0,0,
	| 0,1,0,0,0,1,0,1,0,
	| 0,0,0,0,1,0,1,0,0,
	| 0,0,0,0,0,1,0,1,0,
	| 0,0,0,0,0,2,0,0,0,
	| 0,0,0,0,1,1,0,1,0,
	| 0,0,1,0,1,0,0,0,0,
	| 0,0,0,0,0,1,1,0,0,
	| 0,0,1,0,0,0,0,1,0,
	| 0,0,0,0,0,0,1,1,0,
	| 0,1,0,0,0,0,1,0,0,
	| 0,1,0,0,0,0,0,1,0,
	| 0,0,0,0,0,0,1,0,0,
	| 0,0,0,1,0,1,0,1,0,
	| 0,0,1,0,1,0,0,1,0,
	| 0,0,0,0,0,1,0,1,0,
	| 0,0,1,0,0,0,0,0,0,
	| 0,0,0,0,0,0,0,1,0,
	| 0,0,0,0,0,1,2,0,0,
	| 0,0,0,0,1,1,1,0,0,
	| 0,0,0,0,1,0,1,0,0,
	| 0,0,0,1,0,1,0,0,0,
	| 1,0,0,0,0,0,0,0,0,
	| 0,0,0,0,0,1,0,0,0,
	| 0,0,0,0,0,1,1,1,0,
	| 0,0,0,0,0,1,0,2,0,
	| 0,0,0,0,0,2,1,0,0,
	| 0,0,0,0,1,0,1,0,0,
	| 0,0,0,0,0,0,0,0,0, |];

% SumOfsreq = 128;

nResources = 9;
mastery = [| false,false,false,false,false,true,true,true,true,
	| false,false,false,false,true,true,false,false,false,
	| false,false,false,false,false,true,false,false,true,
	| false,false,true,true,true,true,true,true,true,
	| false,false,false,false,false,false,true,true,true,
	| false,false,true,true,true,true,false,false,false,
	| false,false,false,false,false,false,true,true,true,
	| true,true,true,false,false,false,false,false,false,
	| false,false,false,false,false,true,false,false,false, |];

nPrecs = 112;
pred = [1,1,1,2,2,2,3,3,3,4,4,5,5,6,6,6,7,8,8,8,9,9,9,10,10,10,11,12,12,12,13,14,14,15,15,15,16,16,17,17,17,18,18,19,19,20,20,20,21,22,22,23,23,23,24,24,25,25,25,26,27,27,27,28,28,28,29,29,29,30,30,31,32,32,33,33,33,34,35,36,37,37,38,38,39,40,40,41,41,42,43,44,44,45,46,47,47,48,49,50,50,51,52,53,54,55,56,57,58,59,60,61];
succ = [2,3,4,12,7,8,11,29,19,5,16,6,14,10,45,58,55,9,47,15,50,38,24,25,26,22,26,52,13,15,59,30,23,18,21,53,17,34,28,18,20,46,32,33,47,27,44,43,22,37,40,27,43,47,37,48,34,61,38,39,49,38,40,35,36,31,33,35,30,36,31,60,41,56,45,39,56,57,51,55,42,55,42,46,53,42,54,43,54,60,57,50,46,48,60,50,51,51,56,52,54,53,58,61,61,57,58,59,59,62,62,62];

nUnrels = 1181;
unpred = [2,2,2,2,2,2,2,2,2,2,2,2,2,2,2,2,2,2,2,2,2,2,2,2,2,2,2,3,3,3,3,3,3,3,3,3,3,3,3,3,3,3,3,3,3,3,3,3,3,3,3,3,3,3,3,3,3,3,3,3,4,4,4,4,4,4,4,4,4,4,4,4,5,5,5,5,5,5,5,5,5,5,5,5,5,5,5,5,5,5,5,5,5,6,6,6,6,6,6,6,6,6,6,6,6,6,6,6,6,6,6,6,6,6,6,6,6,6,6,6,6,6,6,6,6,6,7,7,7,7,7,7,7,7,7,7,7,7,7,7,7,7,7,7,7,7,7,7,7,7,7,7,7,7,7,7,7,7,7,7,7,7,7,7,7,7,7,7,7,7,7,7,7,7,7,7,7,8,8,8,8,8,8,8,8,8,8,8,8,8,8,8,8,8,8,8,8,8,8,8,8,8,9,9,9,9,9,9,9,9,9,9,9,9,9,9,9,9,9,9,9,9,9,9,9,9,9,9,9,9,9,9,9,9,9,9,9,10,10,10,10,10,10,10,10,10,10,10,10,10,10,10,10,10,10,10,10,10,10,10,10,10,10,10,10,10,10,10,10,10,10,11,11,11,11,11,11,11,11,11,11,11,11,11,11,11,11,11,11,11,11,11,11,11,11,11,11,11,11,11,11,11,11,11,11,11,11,11,11,11,11,11,11,11,11,11,11,12,12,12,12,12,12,12,12,12,12,12,12,12,12,12,12,12,12,12,12,12,12,12,12,12,12,12,13,13,13,13,13,13,13,13,13,13,13,13,13,13,13,13,13,13,13,13,13,13,13,13,13,13,13,13,13,13,13,13,13,13,13,13,13,13,13,13,13,13,13,13,13,13,13,14,14,14,14,14,14,14,14,14,14,14,14,14,14,14,14,14,14,14,14,14,14,14,15,15,15,15,15,15,15,15,15,15,15,15,15,15,15,15,15,15,15,15,15,15,15,15,15,15,15,16,16,16,16,16,16,16,16,16,16,16,16,16,16,16,17,17,17,17,17,17,17,17,17,17,17,17,17,17,17,17,18,18,18,18,18,18,18,18,18,18,18,18,18,18,18,18,18,18,18,18,18,18,18,18,18,18,18,18,18,18,18,18,19,19,19,19,19,19,19,19,19,19,19,19,19,19,19,19,19,19,19,19,19,19,19,19,19,19,19,19,20,20,20,20,20,20,20,20,20,20,20,20,20,20,20,20,20,20,20,20,20,20,20,20,21,21,21,21,21,21,21,21,21,21,21,21,21,21,21,21,21,21,21,21,21,21,21,21,21,21,21,21,21,21,22,22,22,22,22,22,22,22,22,22,22,22,22,22,22,22,22,22,22,22,22,22,22,22,22,22,22,22,22,22,23,23,23,23,23,23,23,23,23,23,23,23,23,23,23,23,23,23,23,24,24,24,24,24,24,24,24,24,24,24,24,24,24,24,24,24,24,24,24,24,24,24,24,24,24,24,25,25,25,25,25,25,25,25,25,25,25,25,25,25,25,25,25,25,25,25,25,25,25,25,25,25,25,25,26,26,26,26,26,26,26,26,26,26,26,26,26,26,26,26,26,26,26,26,26,26,26,26,26,26,26,26,26,26,26,26,27,27,27,27,27,27,27,27,27,27,27,27,27,27,27,27,27,27,27,27,27,27,27,28,28,28,28,28,28,28,28,28,28,28,28,28,28,28,28,28,28,28,28,28,28,28,29,29,29,29,29,29,29,29,29,29,29,29,29,29,29,30,30,30,30,30,30,30,30,30,30,30,30,30,30,30,30,30,30,30,30,30,30,30,30,30,31,31,31,31,31,31,31,31,31,31,31,31,31,31,31,31,31,31,31,31,31,31,31,31,31,31,31,31,31,32,32,32,32,32,32,32,32,32,32,32,32,32,32,32,32,32,32,32,32,32,33,33,33,33,33,33,33,33,33,33,33,33,33,33,33,33,33,33,33,34,34,34,34,34,34,34,34,34,34,34,34,34,34,34,34,34,34,34,34,34,34,34,34,34,35,35,35,35,35,35,35,35,35,35,35,35,35,35,35,35,35,35,35,35,35,35,35,36,36,36,36,36,36,36,36,36,36,36,36,36,36,36,36,36,36,36,36,36,36,37,37,37,37,37,37,37,37,37,37,37,37,37,37,37,37,37,37,37,38,38,38,38,38,38,38,38,38,38,38,38,38,38,38,38,38,38,38,38,39,39,39,39,39,39,39,39,39,39,39,39,39,39,39,39,39,39,39,39,40,40,40,40,40,40,40,40,40,40,40,40,40,40,40,40,40,41,41,41,41,41,41,41,41,41,41,41,41,41,41,41,42,42,42,42,42,42,42,42,42,42,42,42,42,42,42,42,42,42,43,43,43,43,43,43,43,43,43,43,43,43,43,43,43,43,44,44,44,44,44,44,44,44,44,45,45,45,45,45,45,45,45,45,45,45,45,46,46,46,46,46,46,46,46,46,46,46,46,46,46,47,47,47,47,47,47,48,48,48,48,48,48,48,48,48,48,49,49,49,49,49,49,49,49,49,50,50,50,50,50,50,51,51,51,51,51,51,51,51,52,52,52,52,52,52,52,53,53,53,53,53,53,53,54,54,54,54,54,54,55,55,55,55,56,56,56,57,57,57,58,58,59,59,60];
unsucc = [3,4,5,6,10,11,14,16,17,19,20,23,25,26,27,28,29,30,31,33,34,35,36,39,44,45,49,4,5,6,7,8,9,10,12,13,14,15,16,17,18,20,21,22,23,24,25,27,28,32,34,37,38,40,41,42,43,44,46,49,7,8,9,11,12,13,15,19,21,24,29,33,7,8,9,11,12,13,15,16,17,18,19,20,21,24,28,29,32,33,35,41,44,7,8,9,11,12,13,14,15,16,17,18,19,20,21,23,24,27,28,29,30,31,32,33,35,36,41,43,44,47,49,50,52,56,8,9,10,11,12,13,14,15,16,17,18,19,20,21,22,23,24,25,26,27,28,29,30,31,32,33,34,35,36,37,38,39,40,41,42,43,44,45,46,47,48,49,50,51,52,53,54,56,58,60,61,10,11,12,13,14,16,17,19,20,23,25,26,27,28,29,30,31,33,34,35,36,39,44,45,49,10,11,12,13,14,15,16,17,18,19,20,21,22,23,25,26,27,28,29,30,31,32,33,34,35,36,39,40,41,43,44,45,47,49,56,11,12,13,14,15,16,17,18,19,20,21,23,24,27,28,29,30,31,32,33,35,36,41,43,44,45,47,48,49,50,51,52,56,58,12,13,14,15,16,17,18,19,20,21,22,23,24,25,27,28,29,30,31,32,33,34,35,36,37,38,40,41,42,43,44,45,46,47,48,49,50,51,52,54,55,56,57,58,59,60,14,16,17,19,20,23,24,25,26,27,28,29,30,31,33,34,35,36,38,39,44,45,47,48,49,50,51,14,15,16,17,18,19,20,21,22,23,24,25,26,27,28,29,30,31,32,33,34,35,36,37,38,39,40,41,42,43,44,45,46,47,48,49,50,51,52,53,54,55,56,57,58,60,61,15,16,17,18,19,20,21,22,24,25,26,28,29,32,33,34,35,37,39,41,44,45,48,16,17,19,20,23,24,25,26,27,28,29,30,31,33,34,35,36,38,39,44,45,47,48,49,50,51,52,19,21,22,23,24,25,26,29,30,33,37,39,45,47,48,19,21,22,23,24,25,26,29,30,33,34,37,39,45,47,48,19,20,21,22,23,24,25,26,27,28,29,30,31,33,34,35,36,37,38,39,40,42,44,45,47,48,49,50,51,52,53,55,20,21,22,23,24,25,26,27,28,29,30,31,32,34,35,36,37,38,40,41,42,43,44,46,49,55,57,60,21,22,23,24,25,26,28,29,30,31,32,33,34,35,36,37,39,41,45,47,48,51,53,55,23,24,25,26,27,28,29,30,31,32,33,34,35,36,38,39,41,43,44,45,46,47,48,49,50,51,52,53,56,58,23,24,25,26,27,28,29,30,31,32,33,34,35,36,38,39,41,43,44,45,46,47,48,49,50,51,52,53,56,58,24,25,26,28,29,30,31,32,33,34,35,36,37,39,41,44,45,48,55,25,26,27,28,29,30,31,32,33,34,35,36,38,39,40,41,43,44,45,46,47,49,50,52,54,56,58,26,27,28,29,30,31,32,33,35,36,37,39,40,41,43,44,45,47,48,49,50,51,52,53,54,55,56,58,27,28,29,30,31,32,33,34,35,36,37,38,40,41,42,43,44,45,46,47,48,49,50,51,52,54,55,56,57,58,59,60,28,29,30,31,32,33,34,35,36,37,39,41,43,44,45,47,48,50,51,52,53,55,57,29,30,32,33,34,37,38,39,40,41,42,43,44,45,46,47,48,49,50,52,54,56,58,32,34,37,38,40,41,42,43,44,46,47,49,50,52,54,32,33,34,35,37,38,39,40,41,42,43,44,45,46,47,48,49,50,51,52,53,54,56,58,61,32,33,34,35,36,37,38,39,40,41,42,43,44,45,46,47,48,49,50,51,52,53,54,55,56,57,58,59,61,33,34,35,36,37,38,39,40,42,44,45,46,47,48,49,50,51,52,53,55,60,34,35,36,37,38,40,41,42,43,44,46,47,49,50,52,54,55,57,60,35,36,37,38,39,40,41,42,43,44,45,46,47,48,49,50,51,52,53,54,55,56,58,60,61,36,37,38,39,40,41,42,43,44,45,46,47,48,49,50,52,54,55,56,57,58,59,60,37,38,39,40,41,42,43,44,45,46,47,48,49,50,51,52,53,54,56,58,60,61,38,39,40,41,43,44,45,46,47,48,49,50,51,52,53,54,56,58,61,39,40,41,43,44,45,47,48,49,50,51,52,53,54,55,56,57,58,59,61,40,41,42,43,44,45,46,47,48,49,50,51,52,54,55,56,57,58,59,60,41,43,44,45,46,47,48,49,50,51,52,53,55,56,57,58,59,42,44,45,46,47,48,49,50,51,52,53,55,56,58,60,43,44,45,46,47,48,49,50,51,52,53,54,55,56,57,58,59,61,44,45,46,47,48,49,50,51,52,53,54,55,56,58,60,61,45,47,48,49,51,53,55,56,57,46,47,49,50,52,54,55,56,57,58,59,60,47,48,49,50,51,52,53,54,55,56,57,58,59,61,48,49,55,56,57,60,49,50,52,54,55,56,57,58,59,60,50,51,52,53,54,55,57,60,61,51,53,55,56,57,60,52,54,55,56,57,58,59,60,53,54,55,56,57,60,61,54,55,56,57,58,59,60,55,56,57,58,59,60,56,58,60,61,57,60,61,58,60,61,60,61,60,61,61];

USEFUL_RES = [{},
	{1,4,5,7},
	{1,2,3,4,6,8,9},
	{1,4,5,6,7},
	{1,4,5,7,8},
	{1,2,3,4,6,8,9},
	{1,2,3,4,5,6,7,9},
	{1,4,5,6,7},
	{1,2,3,4,5,6,7,9},
	{1,4,5,7},
	{2,4,6,8},
	{1,4,5,7,8},
	{1,2,3,4,5,6,7,9},
	{1,2,3,4,6,9},
	{1,4,5,6,7},
	{1,2,3,4,5,6,7,9},
	{1,2,3,4,5,6,7},
	{1,4,5,7},
	{4,6,8},
	{1,2,3,4,6,9},
	{2,4,6},
	{1,2,3,4,6,9},
	{1,2,3,4,6,9},
	{2,4,6},
	{4,6},
	{2,4,6,8},
	{1,4,5,7},
	{1,2,3,4,5,6,7,9},
	{1,2,4,5,6,7,8},
	{1,4,5,7},
	{1,2,3,4,5,6,7,9},
	{1,4,5,6,7},
	{1,2,3,4,5,6,7,9},
	{1,4,5,7},
	{1,2,3,4,5,6,7,8,9},
	{1,2,4,5,6,7},
	{1,2,3,4,5,6,7,9},
	{1,2,3,4,6,9},
	{1,2,3,4,5,6,7,9},
	{2,4,6,8},
	{1,2,3,4,5,6,7,9},
	{1,4,5,6,7,8},
	{1,4,5,7},
	{1,4,5,7,8},
	{1,4,5,7,8},
	{1,4,5,7},
	{1,2,3,4,5,6,7,9},
	{1,2,4,5,6,7,8},
	{1,2,3,4,5,6,7,9},
	{4,6,8},
	{1,4,5,7},
	{1,2,3,4,5,6,7,9},
	{1,2,3,4,5,6,7,9},
	{1,2,4,5,6,7},
	{1,2,3,4,6,9},
	{8},
	{1,2,3,4,6,9},
	{1,2,3,4,5,6,7,9},
	{1,2,3,4,5,6,7,9},
	{1,2,3,4,5,6,7,9},
	{1,2,4,5,6,7},
	{}];

POTENTIAL_ACT = [{2,3,4,5,6,7,8,9,10,12,13,14,15,16,17,18,20,22,23,27,28,29,30,31,32,33,34,35,36,37,38,39,41,42,43,44,45,46,47,48,49,51,52,53,54,55,57,58,59,60,61},
	{3,6,7,9,11,13,14,16,17,20,21,22,23,24,26,28,29,31,33,35,36,37,38,39,40,41,47,48,49,52,53,54,55,57,58,59,60,61},
	{3,6,7,9,13,14,16,17,20,22,23,28,31,33,35,37,38,39,41,47,49,52,53,55,57,58,59,60},
	{2,3,4,5,6,7,8,9,10,11,12,13,14,15,16,17,18,19,20,21,22,23,24,25,26,27,28,29,30,31,32,33,34,35,36,37,38,39,40,41,42,43,44,45,46,47,48,49,50,51,52,53,54,55,57,58,59,60,61},
	{2,4,5,7,8,9,10,12,13,15,16,17,18,27,28,29,30,31,32,33,34,35,36,37,39,41,42,43,44,45,46,47,48,49,51,52,53,54,58,59,60,61},
	{3,4,6,7,8,9,11,13,14,15,16,17,19,20,21,22,23,24,25,26,28,29,31,32,33,35,36,37,38,39,40,41,42,47,48,49,50,52,53,54,55,57,58,59,60,61},
	{2,4,5,7,8,9,10,12,13,15,16,17,18,27,28,29,30,31,32,33,34,35,36,37,39,41,42,43,44,45,46,47,48,49,51,52,53,54,58,59,60,61},
	{3,5,6,11,12,19,26,29,35,40,42,44,45,48,50,56},
	{3,6,7,9,13,14,16,20,22,23,28,31,33,35,37,38,39,41,47,49,52,53,55,57,58,59,60}];
